
Gurobi 11.0.3 (linux64) logging started Mon 18 Nov 2024 09:47:47 PM CST

Set parameter LogFile to value "/home/dlcole3/graph_abstraction/hierarchical_graphs/git_storage/CS1/HP_low_reserves/gurobi_logs/serial/logfile_ST13_1.log"

Gurobi 11.0.3 (linux64) logging started Mon 18 Nov 2024 09:48:42 PM CST

Set parameter LogFile to value "/home/dlcole3/graph_abstraction/hierarchical_graphs/git_storage/CS1/HP_low_reserves/gurobi_logs/serial/logfile_ST13_1.log"
Gurobi Optimizer version 11.0.3 build v11.0.3rc0 (linux64 - "Ubuntu 18.04.3 LTS")

CPU model: Intel(R) Xeon(R) CPU E5-2698 v4 @ 2.20GHz, instruction set [SSE2|AVX|AVX2]
Thread count: 40 physical cores, 80 logical processors, using up to 20 threads

Optimize a model with 29168 rows, 50688 columns and 136175 nonzeros
Model fingerprint: 0x114bb047
Variable types: 46944 continuous, 3744 integer (3744 binary)
Coefficient statistics:
  Matrix range     [6e-01, 2e+04]
  Objective range  [2e+00, 2e+04]
  Bounds range     [5e-02, 2e+05]
  RHS range        [5e-02, 7e+03]
Presolve removed 14249 rows and 38794 columns
Presolve time: 0.39s
Presolved: 14919 rows, 11894 columns, 63880 nonzeros
Variable types: 8838 continuous, 3056 integer (3056 binary)
Found heuristic solution: objective 176411.40009
Found heuristic solution: objective 139673.85023

Root relaxation: objective 3.381410e+04, 7944 iterations, 0.31 seconds (0.21 work units)

    Nodes    |    Current Node    |     Objective Bounds      |     Work
 Expl Unexpl |  Obj  Depth IntInf | Incumbent    BestBd   Gap | It/Node Time

     0     0 33814.1005    0    5 139673.850 33814.1005  75.8%     -    1s
H    0     0                    139669.44907 33814.1005  75.8%     -    1s
H    0     0                    36412.082547 33814.1005  7.13%     -    1s
     0     0 33814.1005    0   10 36412.0825 33814.1005  7.13%     -    1s
H    0     0                    34159.638594 33814.1005  1.01%     -    1s
     0     0 33814.1005    0    5 34159.6386 33814.1005  1.01%     -    1s
     0     0 33814.1005    0    1 34159.6386 33814.1005  1.01%     -    2s
H    0     0                    34159.638574 33814.1005  1.01%     -    2s
     0     0 33814.1005    0    2 34159.6386 33814.1005  1.01%     -    2s
     0     0 33814.1005    0    3 34159.6386 33814.1005  1.01%     -    2s
     0     0 33814.1005    0    3 34159.6386 33814.1005  1.01%     -    2s
H    0     0                    34110.606879 33870.2779  0.70%     -    2s
H    0     0                    34110.450345 33870.2779  0.70%     -    2s
     0     0 33870.2779    0    3 34110.4503 33870.2779  0.70%     -    2s
     0     0 33870.2779    0    2 34110.4503 33870.2779  0.70%     -    2s
     0     0 33870.3328    0    3 34110.4503 33870.3328  0.70%     -    3s
     0     0 33870.3328    0   12 34110.4503 33870.3328  0.70%     -    3s
     0     0 33870.3328    0   11 34110.4503 33870.3328  0.70%     -    3s
     0     0 33885.6342    0   11 34110.4503 33885.6342  0.66%     -    3s

Cutting planes:
  MIR: 2
  Flow cover: 1

Explored 1 nodes (13490 simplex iterations) in 3.37 seconds (1.83 work units)
Thread count was 20 (of 80 available processors)

Solution count 7: 34110.5 34159.6 36412.1 ... 757036

Optimal solution found (tolerance 3.00e-03)
Best objective 3.411045034489e+04, best bound 3.409487440054e+04, gap 0.0457%

User-callback calls 1709, time in user-callback 0.00 sec
